
******************************************************************************
This program contains Ipopt, a library for large-scale nonlinear optimization.
 Ipopt is released as open source code under the Eclipse Public License (EPL).
         For more information visit http://projects.coin-or.org/Ipopt
******************************************************************************

This is Ipopt version 3.12.6, running with linear solver ma57.

Number of nonzeros in equality constraint Jacobian...:        0
Number of nonzeros in inequality constraint Jacobian.:      102
Number of nonzeros in Lagrangian Hessian.............:       15

Total number of variables............................:        5
                     variables with only lower bounds:        0
                variables with lower and upper bounds:        5
                     variables with only upper bounds:        0
Total number of equality constraints.................:        0
Total number of inequality constraints...............:       21
        inequality constraints with only lower bounds:        4
   inequality constraints with lower and upper bounds:       17
        inequality constraints with only upper bounds:        0

iter    objective    inf_pr   inf_du lg(mu)  ||d||  lg(rg) alpha_du alpha_pr  ls
   0 -1.2539902e+00 0.00e+00 9.00e-01  -1.0 0.00e+00    -  0.00e+00 0.00e+00   0
   1 -1.2540204e+00 0.00e+00 1.02e-02  -1.0 3.27e+00    -  9.90e-01 1.00e+00f  1
   2 -1.2688569e+00 0.00e+00 9.16e-04  -1.0 2.59e+02    -  9.78e-01 1.00e+00f  1
   3 -1.5170666e+00 0.00e+00 2.23e-01  -1.0 1.31e+03    -  7.39e-01 1.00e+00h  1
   4 -1.6084764e+00 0.00e+00 1.24e-02  -1.0 3.03e+03    -  9.86e-01 1.00e+00h  1
   5 -1.6435437e+00 0.00e+00 1.11e-04  -1.0 1.33e+03    -  1.00e+00 1.00e+00h  1
   6 -1.6522686e+00 0.00e+00 1.43e-06  -1.0 1.39e+02    -  1.00e+00 1.00e+00h  1
   7 -1.8214222e+00 0.00e+00 2.54e-01  -2.5 2.27e+03    -  7.50e-01 1.00e+00f  1
   8 -2.1794032e+00 4.59e-02 5.35e-02  -2.5 9.73e+03    -  6.11e-01 1.00e+00h  1
Reallocating memory for MA57: lfact (951)
   9 -2.1981684e+00 0.00e+00 2.30e-05  -2.5 6.05e+02    -  1.00e+00 1.00e+00h  1
iter    objective    inf_pr   inf_du lg(mu)  ||d||  lg(rg) alpha_du alpha_pr  ls
  10 -2.1913518e+00 0.00e+00 4.56e-05  -2.5 3.29e+02    -  1.00e+00 1.00e+00h  1
  11 -2.1924360e+00 0.00e+00 4.81e-06  -2.5 6.83e+01    -  1.00e+00 1.00e+00h  1
  12 -2.2114015e+00 0.00e+00 1.24e-01  -3.8 7.40e+02    -  9.52e-01 6.44e-01h  1
Reallocating memory for MA57: lfact (1020)
  13 -2.2136172e+00 0.00e+00 1.04e-01  -3.8 2.01e+01    -  7.83e-01 8.98e-01h  1
Reallocating memory for MA57: lfact (1093)
  14 -2.2147916e+00 0.00e+00 1.70e-06  -3.8 7.12e+00    -  1.00e+00 1.00e+00h  1
  15 -2.2147218e+00 0.00e+00 1.39e-08  -3.8 6.49e-01    -  1.00e+00 1.00e+00h  1
  16 -2.2155236e+00 0.00e+00 3.67e-03  -5.7 4.89e+00    -  9.13e-01 9.37e-01h  1
Reallocating memory for MA57: lfact (1329)
  17 -2.2155936e+00 0.00e+00 2.92e-09  -5.7 5.55e-01    -  1.00e+00 1.00e+00h  1
  18 -2.2155936e+00 0.00e+00 1.84e-11  -5.7 5.78e-04    -  1.00e+00 1.00e+00h  1
  19 -2.2156047e+00 0.00e+00 3.99e-07  -8.6 4.74e-02    -  1.00e+00 1.00e+00h  1
Reallocating memory for MA57: lfact (1502)
iter    objective    inf_pr   inf_du lg(mu)  ||d||  lg(rg) alpha_du alpha_pr  ls
  20 -2.2156047e+00 0.00e+00 1.68e-13  -8.6 5.93e-05    -  1.00e+00 1.00e+00h  1

Number of Iterations....: 20

                                   (scaled)                 (unscaled)
Objective...............:  -2.2156046946816756e+00   -2.2156046946816756e+00
Dual infeasibility......:   1.6797456161638809e-13    1.6797456161638809e-13
Constraint violation....:   0.0000000000000000e+00    0.0000000000000000e+00
Complementarity.........:   3.3338643937777808e-09    3.3338643937777808e-09
Overall NLP error.......:   3.3338643937777808e-09    3.3338643937777808e-09


Number of objective function evaluations             = 21
Number of objective gradient evaluations             = 21
Number of equality constraint evaluations            = 0
Number of inequality constraint evaluations          = 21
Number of equality constraint Jacobian evaluations   = 0
Number of inequality constraint Jacobian evaluations = 21
Number of Lagrangian Hessian evaluations             = 20
Total CPU secs in IPOPT (w/o function evaluations)   =      0.013
Total CPU secs in NLP function evaluations           =      0.010

EXIT: Optimal Solution Found.
Note: The following floating-point exceptions are signalling: IEEE_INVALID_FLAG IEEE_DIVIDE_BY_ZERO

************************ CUTEst statistics ************************


 Package used            :  IPOPT
 Problem                 :  HS85      
 # variables             =               5
 # constraints           =              21
 # objective functions   =        0.4300000E+02
 # objective gradients   =        0.2200000E+02
 # objective Hessians    =        0.2100000E+02
 # Hessian-vector prdct  =        0.0000000E+00
 # constraints functions =        0.4400000E+02
 # constraints gradients =        0.2300000E+02
 # constraints Hessians  =        0.2100000E+02
 Exit code               =               0
 Final f                 =  -0.2215605E+01
 Set up time             =            0.00 seconds
 Solve time              =            0.07 seconds


******************************************************************

System Time =       0.0179999992 s.
